TOUR_SECTION
141
15
32
161
188
111
1
109
90
103
157
28
56
73
200
125
97
123
193
164
71
14
137
181
6
115
29
16
8
154
178
23
108
102
143
128
43
83
117
94
146
27
9
58
40
55
91
138
112
22
88
194
37
85
66
80
51
158
118
127
46
171
13
92
105
42
153
191
61
169
64
44
186
69
53
135
116
62
150
17
107
35
81
49
170
183
136
84
41
86
19
119
74
79
110
57
179
189
144
11
39
114
173
50
176
149
10
172
65
167
5
78
199
130
145
63
148
106
142
60
75
131
36
68
48
4
82
99
2
124
196
195
156
104
155
59
34
26
139
182
174
162
133
3
18
152
134
30
101
187
33
159
72
177
12
77
31
185
25
126
168
129
147
24
192
163
151
132
89
47
175
165
184
21
20
38
160
52
198
166
67
180
140
95
100
76
98
121
45
93
120
54
197
122
7
113
70
87
190
96
-1
EOF